17	4	3
22	26	23	30	19	25	33	
0	0	0	0	0	6	4	8	7	8	8	3	2	3	4
7	6	3	5	0	10	5	1	8	8	6	2	15	16
9	2	7	7	0	8	6	3	5	2	3	3	5	13	17
7	3	0	8	6	1	8	10	5	5	2	3	6	7	10
1	3	5	6	9	3	5	1	5	6	1	2	8	17
25	2	1	4	6	9	2	5	6	8	2	1	16
125	7	5	0	7	3	7	7	4	4	4	3	9	15	17
250	0	5	8	0	10	1	10	2	5	1	3	12	14	17
75	10	5	7	9	4	6	9	3	10	3	2	13	17
250	1	5	5	4	4	3	8	4	7	3	2	11	17
25	10	5	0	1	5	5	4	9	1	1	2	17	17
100	7	1	0	0	1	4	7	7	8	1	1	17
5	0	8	5	1	1	7	2	1	8	7	2	14	17
7	6	5	8	10	2	2	2	10	4	1	1	17
6	2	9	2	6	3	8	4	10	2	10	1	17
6	6	9	4	0	2	6	5	6	4	6	1	17
0	0	0	0	0	7	5	9	4	1	7	0
